(set-info :source |printed by MathSAT|)
(declare-fun A_0 () Int)
(declare-fun .y.17 () Int)
(declare-fun D_0 () Int)
(declare-fun .y.18 () Int)
(declare-fun .y.12 () Int)
(declare-fun .y.19 () Int)
(declare-fun C_0 () (Array Int Int))
(declare-fun .y.20 () (Array Int Int))
(declare-fun F_0 () Int)
(declare-fun .y.21 () Int)
(declare-fun B_0 () Int)
(declare-fun .y.22 () Int)
(declare-fun .y.13 () Int)
(declare-fun .y.23 () Int)
(declare-fun .y.14 () Int)
(declare-fun .y.24 () Int)
(declare-fun E_0 () (Array Int Int))
(declare-fun .y.25 () (Array Int Int))
(declare-fun .loc.15 () Bool)
(declare-fun .loc.26 () Bool)
(declare-fun .loc.16 () Bool)
(declare-fun .loc.27 () Bool)
(define-fun .def_8 () Int (! A_0 :next |.y.17|))
(define-fun .def_10 () Int (! D_0 :next |.y.18|))
(define-fun .def_12 () Int (! .y.12 :next |.y.19|))
(define-fun .def_14 () (Array Int Int) (! C_0 :next |.y.20|))
(define-fun .def_16 () Int (! F_0 :next |.y.21|))
(define-fun .def_18 () Int (! B_0 :next |.y.22|))
(define-fun .def_20 () Int (! .y.13 :next |.y.23|))
(define-fun .def_22 () Int (! .y.14 :next |.y.24|))
(define-fun .def_24 () (Array Int Int) (! E_0 :next |.y.25|))
(define-fun .def_26 () Bool (! .loc.15 :next |.loc.26|))
(define-fun .def_28 () Bool (! .loc.16 :next |.loc.27|))
(define-fun .def_182 () Bool (not .def_28))
(define-fun .def_188 () Bool (and .def_26 .def_182))
(define-fun .def_185 () Bool (= .def_10 .def_16))
(define-fun .def_157 () Bool (= .def_14 .def_24))
(define-fun .def_186 () Bool (and .def_157 .def_185))
(define-fun .def_184 () Bool (= .def_8 .def_18))
(define-fun .def_187 () Bool (and .def_184 .def_186))
(define-fun .def_189 () Bool (! (and .def_187 .def_188) :init true))
(define-fun .def_39 () Bool (not .loc.26))
(define-fun .def_175 () Bool (and .loc.27 .def_39))
(define-fun .def_34 () Int (select .def_24 .def_16))
(define-fun .def_35 () Bool (= .def_34 0))
(define-fun .def_36 () Bool (not .def_35))
(define-fun .def_31 () Int (select .def_14 .def_10))
(define-fun .def_32 () Bool (= .def_31 0))
(define-fun .def_168 () Bool (and .def_32 .def_36))
(define-fun .def_33 () Bool (not .def_32))
(define-fun .def_167 () Bool (and .def_33 .def_35))
(define-fun .def_169 () Bool (or .def_167 .def_168))
(define-fun .def_165 () Bool (and .def_32 .def_35))
(define-fun .def_158 () Bool (not .def_157))
(define-fun .def_166 () Bool (and .def_158 .def_165))
(define-fun .def_170 () Bool (or .def_166 .def_169))
(define-fun .def_171 () Bool (and .def_26 .def_170))
(define-fun .def_92 () Int (+ .def_8 .def_10))
(define-fun .def_93 () Int (select .def_14 .def_92))
(define-fun .def_95 () Bool (= .def_93 0))
(define-fun .def_98 () Bool (not .def_95))
(define-fun .def_64 () Bool (not .def_26))
(define-fun .def_148 () Bool (and .def_64 .def_98))
(define-fun .def_91 () Int (select .def_14 .def_12))
(define-fun .def_94 () Bool (= .def_91 .def_93))
(define-fun .def_149 () Bool (and .def_94 .def_148))
(define-fun .def_66 () Int (select .def_24 .def_22))
(define-fun .def_67 () Bool (= .def_66 0))
(define-fun .def_164 () Bool (and .def_67 .def_149))
(define-fun .def_172 () Bool (or .def_164 .def_171))
(define-fun .def_161 () Bool (and .def_64 .def_95))
(define-fun .def_68 () Bool (not .def_67))
(define-fun .def_162 () Bool (and .def_68 .def_161))
(define-fun .def_86 () Bool (= .def_16 .def_66))
(define-fun .def_163 () Bool (and .def_86 .def_162))
(define-fun .def_173 () Bool (or .def_163 .def_172))
(define-fun .def_153 () Int (* (- 1) .def_18))
(define-fun .def_154 () Int (+ .def_12 .def_153))
(define-fun .def_155 () Bool (= .def_154 (- 1)))
(define-fun .def_156 () Bool (not .def_155))
(define-fun .def_159 () Bool (or .def_156 .def_158))
(define-fun .def_150 () Bool (and .def_68 .def_149))
(define-fun .def_151 () Bool (and .def_86 .def_150))
(define-fun .def_160 () Bool (and .def_151 .def_159))
(define-fun .def_174 () Bool (or .def_160 .def_173))
(define-fun .def_176 () Bool (and .def_174 .def_175))
(define-fun .def_144 () Int (* (- 1) .def_12))
(define-fun .def_145 () Int (+ .y.18 .def_144))
(define-fun .def_146 () Bool (= .def_145 1))
(define-fun .def_138 () Bool (= .y.21 .def_18))
(define-fun .def_136 () Bool (= .y.22 .def_20))
(define-fun .def_131 () Bool (and .loc.26 .def_64))
(define-fun .def_132 () Bool (and .def_95 .def_131))
(define-fun .def_133 () Bool (and .def_67 .def_132))
(define-fun .def_41 () Bool (not .loc.27))
(define-fun .def_134 () Bool (and .def_41 .def_133))
(define-fun .def_43 () Bool (= .def_24 .y.25))
(define-fun .def_135 () Bool (and .def_43 .def_134))
(define-fun .def_137 () Bool (and .def_135 .def_136))
(define-fun .def_139 () Bool (and .def_137 .def_138))
(define-fun .def_45 () Bool (= .def_14 .y.20))
(define-fun .def_140 () Bool (and .def_45 .def_139))
(define-fun .def_47 () Bool (= .def_8 .y.17))
(define-fun .def_141 () Bool (and .def_47 .def_140))
(define-fun .def_147 () Bool (and .def_141 .def_146))
(define-fun .def_177 () Bool (or .def_147 .def_176))
(define-fun .def_65 () Bool (and .def_39 .def_64))
(define-fun .def_99 () Bool (and .def_65 .def_98))
(define-fun .def_118 () Bool (and .def_68 .def_99))
(define-fun .def_119 () Bool (and .def_41 .def_118))
(define-fun .def_120 () Bool (and .def_43 .def_119))
(define-fun .def_121 () Bool (and .def_45 .def_120))
(define-fun .def_122 () Bool (and .def_47 .def_121))
(define-fun .def_74 () Bool (= .def_20 .y.23))
(define-fun .def_123 () Bool (and .def_74 .def_122))
(define-fun .def_76 () Bool (= .def_18 .y.22))
(define-fun .def_124 () Bool (and .def_76 .def_123))
(define-fun .def_78 () Bool (= .def_16 .y.21))
(define-fun .def_125 () Bool (and .def_78 .def_124))
(define-fun .def_80 () Bool (= .def_12 .y.19))
(define-fun .def_126 () Bool (and .def_80 .def_125))
(define-fun .def_82 () Int (* (- 1) .y.24))
(define-fun .def_83 () Int (+ .def_22 .def_82))
(define-fun .def_84 () Bool (= .def_83 (- 1)))
(define-fun .def_127 () Bool (and .def_84 .def_126))
(define-fun .def_108 () Int (* (- 1) .y.18))
(define-fun .def_109 () Int (+ .def_10 .def_108))
(define-fun .def_110 () Bool (= .def_109 (- 1)))
(define-fun .def_128 () Bool (and .def_110 .def_127))
(define-fun .def_87 () Bool (not .def_86))
(define-fun .def_129 () Bool (and .def_87 .def_128))
(define-fun .def_112 () Bool (not .def_94))
(define-fun .def_130 () Bool (and .def_112 .def_129))
(define-fun .def_178 () Bool (or .def_130 .def_177))
(define-fun .def_116 () Bool (or .def_67 .def_86))
(define-fun .def_114 () Bool (= .def_22 .y.24))
(define-fun .def_100 () Bool (and .def_41 .def_99))
(define-fun .def_101 () Bool (and .def_43 .def_100))
(define-fun .def_102 () Bool (and .def_45 .def_101))
(define-fun .def_103 () Bool (and .def_47 .def_102))
(define-fun .def_104 () Bool (and .def_74 .def_103))
(define-fun .def_105 () Bool (and .def_76 .def_104))
(define-fun .def_106 () Bool (and .def_78 .def_105))
(define-fun .def_107 () Bool (and .def_80 .def_106))
(define-fun .def_111 () Bool (and .def_107 .def_110))
(define-fun .def_113 () Bool (and .def_111 .def_112))
(define-fun .def_115 () Bool (and .def_113 .def_114))
(define-fun .def_117 () Bool (and .def_115 .def_116))
(define-fun .def_179 () Bool (or .def_117 .def_178))
(define-fun .def_96 () Bool (or .def_94 .def_95))
(define-fun .def_89 () Bool (= .def_10 .y.18))
(define-fun .def_69 () Bool (and .def_65 .def_68))
(define-fun .def_70 () Bool (and .def_41 .def_69))
(define-fun .def_71 () Bool (and .def_43 .def_70))
(define-fun .def_72 () Bool (and .def_45 .def_71))
(define-fun .def_73 () Bool (and .def_47 .def_72))
(define-fun .def_75 () Bool (and .def_73 .def_74))
(define-fun .def_77 () Bool (and .def_75 .def_76))
(define-fun .def_79 () Bool (and .def_77 .def_78))
(define-fun .def_81 () Bool (and .def_79 .def_80))
(define-fun .def_85 () Bool (and .def_81 .def_84))
(define-fun .def_88 () Bool (and .def_85 .def_87))
(define-fun .def_90 () Bool (and .def_88 .def_89))
(define-fun .def_97 () Bool (and .def_90 .def_96))
(define-fun .def_180 () Bool (or .def_97 .def_179))
(define-fun .def_60 () Int (* (- 1) .y.22))
(define-fun .def_61 () Int (+ .def_16 .def_60))
(define-fun .def_62 () Bool (= .def_61 (- 1)))
(define-fun .def_57 () Bool (= .y.21 .def_34))
(define-fun .def_55 () Bool (= .y.18 0))
(define-fun .def_53 () Bool (= .def_18 .y.24))
(define-fun .def_51 () Bool (= .def_10 .y.19))
(define-fun .def_49 () Bool (= .def_18 .y.23))
(define-fun .def_37 () Bool (and .def_33 .def_36))
(define-fun .def_38 () Bool (and .def_26 .def_37))
(define-fun .def_40 () Bool (and .def_38 .def_39))
(define-fun .def_42 () Bool (and .def_40 .def_41))
(define-fun .def_44 () Bool (and .def_42 .def_43))
(define-fun .def_46 () Bool (and .def_44 .def_45))
(define-fun .def_48 () Bool (and .def_46 .def_47))
(define-fun .def_50 () Bool (and .def_48 .def_49))
(define-fun .def_52 () Bool (and .def_50 .def_51))
(define-fun .def_54 () Bool (and .def_52 .def_53))
(define-fun .def_56 () Bool (and .def_54 .def_55))
(define-fun .def_58 () Bool (and .def_56 .def_57))
(define-fun .def_63 () Bool (and .def_58 .def_62))
(define-fun .def_181 () Bool (or .def_63 .def_180))
(define-fun .def_183 () Bool (! (and .def_181 .def_182) :trans true))
(define-fun .def_190 () Bool (and .def_28 .def_64))
(define-fun .def_191 () Bool (! (not .def_190) :invar-property 0))
(assert true)
